72 67122
11 62 72 69 45 5 15 58 54 3 25 63 50 9 33 19 40 48 24 4 66 46 20 55 36 42 41 43 13 37 59 39 6 71 57 32 34 29 61 7 49 16 1 44 68 56 30 28 38 65 22 26 52 51 12 70 27 23 10 67 14 47 64 53 18 31 35 60 17 21 2 8 
